(set-logic ALL)
(set-option :fmf-bound true)
(set-option :produce-models true)
(declare-sort Object 0)

(declare-fun var2 (Bool) Bool)
(declare-fun var14 (Bool) Bool)
(declare-fun var42 (Bool) Bool)
(declare-fun var9 (Bool) Bool)
(declare-fun var19 (Bool) Bool)
(declare-fun var100 (Bool) Bool)
(declare-fun var41 (Bool) Bool)
(declare-fun var65 (Bool) Bool)
(declare-fun var69 (Bool) Bool)
(declare-fun var73 (Bool) Bool)
(declare-fun var44 (Bool) Bool)
(declare-fun var64 (Bool) Bool)
(declare-fun var50 (Bool) Bool)
(declare-fun var26 (Bool) Bool)
(declare-fun var6 (Bool) Bool)
(declare-fun var13 (Bool) Bool)
(declare-fun var79 (Bool) Bool)
(declare-fun var8 (Bool) Bool)
(declare-fun var96 (Bool) Bool)
(declare-fun var75 (Bool) Bool)
(declare-fun var5 (Bool) Bool)
(declare-fun var92 (Bool) Bool)
(declare-fun var46 (Bool) Bool)
(declare-fun var58 (Bool) Bool)
(declare-fun var36 (Bool) Bool)
(declare-fun var81 (Bool) Bool)
(declare-fun var4 (Bool) Bool)
(declare-fun var34 (Bool) Bool)
(declare-fun var43 (Bool) Bool)
(declare-fun var74 (Bool) Bool)
(declare-fun var68 (Bool) Bool)
(declare-fun var76 (Bool) Bool)
(declare-fun var37 (Bool) Bool)
(declare-fun var53 (Bool) Bool)
(declare-fun var16 (Bool) Bool)
(declare-fun var55 (Bool) Bool)
(declare-fun var51 (Bool) Bool)
(declare-fun var11 (Bool) Bool)
(declare-fun var80 (Bool) Bool)
(declare-fun var89 (Bool) Bool)
(declare-fun var77 (Bool) Bool)
(declare-fun var15 (Bool) Bool)
(declare-fun var25 (Bool) Bool)
(declare-fun var70 (Bool) Bool)
(declare-fun var66 (Bool) Bool)
(declare-fun var82 (Bool) Bool)
(declare-fun var72 (Bool) Bool)
(declare-fun var94 (Bool) Bool)
(declare-fun var62 (Bool) Bool)
(declare-fun var93 (Bool) Bool)
(declare-fun var54 (Bool) Bool)
(declare-fun var23 (Bool) Bool)
(declare-fun var20 (Bool) Bool)
(declare-fun var52 (Bool) Bool)
(declare-fun var28 (Bool) Bool)
(declare-fun var83 (Bool) Bool)
(declare-fun var3 (Bool) Bool)
(declare-fun var88 (Bool) Bool)
(declare-fun var45 (Bool) Bool)
(declare-fun var29 (Bool) Bool)
(declare-fun var56 (Bool) Bool)
(declare-fun var22 (Bool) Bool)
(declare-fun var12 (Bool) Bool)
(declare-fun var7 (Bool) Bool)
(declare-fun var67 (Bool) Bool)
(declare-fun var18 (Bool) Bool)
(declare-fun var99 (Bool) Bool)
(declare-fun var33 (Bool) Bool)
(declare-fun var71 (Bool) Bool)
(declare-fun var35 (Bool) Bool)
(declare-fun var30 (Bool) Bool)
(declare-fun var21 (Bool) Bool)
(declare-fun var49 (Bool) Bool)
(declare-fun var48 (Bool) Bool)
(declare-fun var38 (Bool) Bool)
(declare-fun var86 (Bool) Bool)
(declare-fun var31 (Bool) Bool)
(declare-fun var78 (Bool) Bool)
(declare-fun var98 (Bool) Bool)
(declare-fun var59 (Bool) Bool)
(declare-fun var97 (Bool) Bool)
(declare-fun var85 (Bool) Bool)
(declare-fun var27 (Bool) Bool)
(declare-fun var90 (Bool) Bool)
(declare-fun var91 (Bool) Bool)
(declare-fun var10 (Bool) Bool)
(declare-fun var60 (Bool) Bool)
(declare-fun var1 (Bool) Bool)
(declare-fun var61 (Bool) Bool)
(declare-fun var39 (Bool) Bool)
(declare-fun var17 (Bool) Bool)
(declare-fun var87 (Bool) Bool)
(declare-fun var57 (Bool) Bool)
(declare-fun var40 (Bool) Bool)
(declare-fun var95 (Bool) Bool)
(declare-fun var47 (Bool) Bool)
(declare-fun var24 (Bool) Bool)
(declare-fun var63 (Bool) Bool)
(declare-fun var32 (Bool) Bool)
(declare-fun var84 (Bool) Bool)
(declare-fun GTE (Bool Bool) Bool)
(define-fun implies ((p Bool)(q Bool)) Bool (or (not p) q))

(assert (forall ((x Bool)) (not(or (var2 x) (not(var14 x))))))
(assert (forall ((x Bool)) (not(or (var42 x) (not(var9 x))))))
(assert (forall ((x Bool)) (not(or (var9 x) (not(var19 x))))))
(assert (forall ((x Bool)) (not(or (var100 x) (var42 x)))))
(assert (forall ((x Bool)) (not(or (var19 x) (var41 x)))))
(assert (forall ((x Bool)) (not(or (not(var65 x)) (var69 x)))))
(assert (forall ((x Bool)) (not(or (not(var73 x)) (var44 x)))))
(assert (forall ((x Bool)) (not(or (var64 x) (not(var73 x))))))
(assert (forall ((x Bool)) (not(or (var50 x) (not(var26 x))))))
(assert (forall ((x Bool)) (not(or (not(var50 x)) (not(var6 x))))))
(assert (forall ((x Bool)) (not(or (not(var13 x)) (not(var79 x))))))
(assert (forall ((x Bool)) (not(or (var8 x) (not(var96 x))))))
(assert (forall ((x Bool)) (not(or (not(var75 x)) (var65 x)))))
(assert (forall ((x Bool)) (not(or (var5 x) (not(var92 x))))))
(assert (forall ((x Bool)) (not(or (not(var41 x)) (var46 x)))))
(assert (forall ((x Bool)) (not(or (not(var69 x)) (var58 x)))))
(assert (forall ((x Bool)) (not(or (var9 x) (not(var36 x))))))
(assert (forall ((x Bool)) (not(or (var81 x) (not(var4 x))))))
(assert (forall ((x Bool)) (not(or (var34 x) (var43 x)))))
(assert (forall ((x Bool)) (not(or (not(var74 x)) (not(var68 x))))))
(assert (forall ((x Bool)) (not(or (var76 x) (var37 x)))))
(assert (forall ((x Bool)) (not(or (var53 x) (not(var16 x))))))
(assert (forall ((x Bool)) (not(or (not(var55 x)) (var42 x)))))
(assert (forall ((x Bool)) (not(or (not(var51 x)) (not(var11 x))))))
(assert (forall ((x Bool)) (not(or (not(var80 x)) (var89 x)))))
(assert (forall ((x Bool)) (not(or (not(var77 x)) (var50 x)))))
(assert (forall ((x Bool)) (not(or (not(var46 x)) (not(var34 x))))))
(assert (forall ((x Bool)) (not(or (var15 x) (var25 x)))))
(assert (forall ((x Bool)) (not(or (var8 x) (var68 x)))))
(assert (forall ((x Bool)) (not(or (not(var92 x)) (not(var70 x))))))
(assert (forall ((x Bool))  (exists ((x1 Bool)) (and(GTE x x1)  (implies (not(var66 x1)) (var82 x))))))
(assert (forall ((x Bool))  (exists ((x1 Bool)) (and(GTE x x1)  (implies (var66 x1) (var36 x))))))
(assert (forall ((x Bool))  (exists ((x1 Bool)) (and(GTE x x1)  (implies (var72 x1) (not(var89 x)))))))
(assert (forall ((x Bool)) (not(or (not(var94 x)) (not(var62 x)) (not(var14 x))))))
(assert (forall ((x Bool)) (not(or (not(var93 x)) (var94 x) (not(var54 x))))))
(assert (forall ((x Bool)) (not(or (var79 x) (not(var41 x)) (not(var5 x))))))
(assert (forall ((x Bool)) (not(or (var23 x) (var20 x) (not(var52 x))))))
(assert (forall ((x Bool)) (not(or (not(var28 x)) (not(var73 x)) (var83 x)))))
(assert (forall ((x Bool)) (not(or (var79 x) (var3 x) (not(var88 x))))))
(assert (forall ((x Bool)) (not(or (var93 x) (not(var45 x)) (not(var29 x))))))
(assert (forall ((x Bool)) (not(or (var43 x) (var81 x) (not(var56 x))))))
(assert (forall ((x Bool)) (not(or (not(var64 x)) (not(var22 x)) (var53 x)))))
(assert (forall ((x Bool)) (not(or (var12 x) (var7 x) (not(var2 x))))))
(assert (forall ((x Bool)) (not(or (not(var20 x)) (var67 x) (not(var6 x))))))
(assert (forall ((x Bool)) (not(or (not(var34 x)) (not(var88 x)) (var89 x)))))
(assert (forall ((x Bool)) (not(or (var88 x) (var18 x) (var99 x)))))
(assert (forall ((x Bool)) (not(or (not(var50 x)) (not(var83 x)) (not(var12 x))))))
(assert (forall ((x Bool)) (not(or (not(var33 x)) (var100 x) (var62 x)))))
(assert (forall ((x Bool)) (not(or (var71 x) (var79 x) (not(var94 x))))))
(assert (forall ((x Bool)) (not(or (var73 x) (var35 x) (var44 x)))))
(assert (forall ((x Bool)) (not(or (not(var30 x)) (not(var92 x)) (var68 x)))))
(assert (forall ((x Bool)) (not(or (not(var3 x)) (var28 x) (not(var82 x))))))
(assert (forall ((x Bool)) (not(or (not(var9 x)) (not(var83 x)) (not(var14 x))))))
(assert (forall ((x Bool)) (not(or (var76 x) (not(var34 x)) (not(var23 x))))))
(assert (forall ((x Bool)) (not(or (not(var21 x)) (not(var4 x)) (not(var29 x))))))
(assert (forall ((x Bool)) (not(or (not(var49 x)) (var48 x) (var38 x)))))
(assert (forall ((x Bool)) (not(or (not(var43 x)) (var74 x) (var58 x)))))
(assert (forall ((x Bool)) (not(or (not(var75 x)) (not(var86 x)) (var70 x)))))
(assert (forall ((x Bool)) (not(or (var56 x) (var31 x) (not(var33 x))))))
(assert (forall ((x Bool)) (not(or (not(var42 x)) (var71 x) (var77 x)))))
(assert (forall ((x Bool)) (not(or (not(var78 x)) (not(var83 x)) (not(var48 x))))))
(assert (forall ((x Bool)) (not(or (not(var77 x)) (not(var98 x)) (var66 x)))))
(assert (forall ((x Bool)) (not(or (var89 x) (var16 x) (var59 x)))))
(assert (forall ((x Bool))  (exists ((x1 Bool)) (and(GTE x x1)  (implies (var73 x1) (or (not(var99 x)) (var46 x)))))))
(assert (forall ((x Bool))  (exists ((x1 Bool)) (and(GTE x x1)  (implies (var37 x1) (or (not(var97 x)) (var55 x)))))))
(assert (forall ((x Bool))  (exists ((x1 Bool)) (and(GTE x x1)  (implies (or (not(var49 x1)) (var70 x1)) (var96 x))))))
(assert (forall ((x Bool)) (not(or (not(var93 x)) (not(var85 x)) (var38 x) (var27 x)))))
(assert (forall ((x Bool)) (not(or (var4 x) (not(var28 x)) (not(var62 x)) (not(var11 x))))))
(assert (forall ((x Bool)) (not(or (var22 x) (var99 x) (var34 x) (not(var7 x))))))
(assert (forall ((x Bool)) (not(or (not(var69 x)) (not(var38 x)) (not(var59 x)) (not(var97 x))))))
(assert (forall ((x Bool)) (not(or (not(var55 x)) (var49 x) (not(var66 x)) (var90 x)))))
(assert (forall ((x Bool)) (not(or (var45 x) (var15 x) (var91 x) (var31 x)))))
(assert (forall ((x Bool)) (not(or (not(var10 x)) (not(var28 x)) (not(var67 x)) (not(var82 x))))))
(assert (forall ((x Bool)) (not(or (not(var27 x)) (not(var52 x)) (var5 x) (not(var69 x))))))
(assert (forall ((x Bool)) (not(or (not(var60 x)) (var26 x) (var21 x) (var64 x)))))
(assert (forall ((x Bool)) (not(or (not(var1 x)) (var10 x) (not(var14 x)) (not(var61 x))))))
(assert (forall ((x Bool)) (not(or (var73 x) (not(var18 x)) (not(var76 x)) (var66 x)))))
(assert (forall ((x Bool)) (not(or (var9 x) (not(var6 x)) (var39 x) (not(var31 x))))))
(assert (forall ((x Bool)) (not(or (var17 x) (not(var89 x)) (not(var72 x)) (var87 x)))))
(assert (forall ((x Bool)) (not(or (var51 x) (var58 x) (var20 x) (not(var13 x))))))
(assert (forall ((x Bool)) (not(or (not(var69 x)) (not(var30 x)) (not(var36 x)) (var70 x)))))
(assert (forall ((x Bool)) (not(or (var75 x) (var69 x) (var12 x) (var10 x)))))
(assert (forall ((x Bool)) (not(or (not(var77 x)) (var50 x) (var9 x) (not(var57 x))))))
(assert (forall ((x Bool)) (not(or (not(var35 x)) (var54 x) (var42 x) (not(var15 x))))))
(assert (forall ((x Bool)) (not(or (not(var31 x)) (var49 x) (var56 x) (not(var66 x))))))
(assert (forall ((x Bool)) (not(or (not(var88 x)) (var50 x) (var82 x) (var4 x)))))
(assert (forall ((x Bool)) (not(or (var100 x) (var34 x) (not(var66 x)) (not(var72 x))))))
(assert (forall ((x Bool)) (not(or (not(var40 x)) (var5 x) (var2 x) (not(var75 x))))))
(assert (forall ((x Bool)) (not(or (not(var57 x)) (not(var80 x)) (not(var30 x)) (var97 x)))))
(assert (forall ((x Bool)) (not(or (not(var51 x)) (var79 x) (var73 x) (var86 x)))))
(assert (forall ((x Bool)) (not(or (not(var23 x)) (var98 x) (not(var50 x)) (not(var73 x))))))
(assert (forall ((x Bool)) (not(or (var93 x) (not(var40 x)) (var72 x) (var12 x)))))
(assert (forall ((x Bool)) (not(or (not(var6 x)) (not(var27 x)) (var8 x) (not(var90 x))))))
(assert (forall ((x Bool)) (not(or (not(var31 x)) (not(var95 x)) (not(var91 x)) (not(var18 x))))))
(assert (forall ((x Bool)) (not(or (not(var54 x)) (var8 x) (var70 x) (var57 x)))))
(assert (forall ((x Bool)) (not(or (not(var15 x)) (var49 x) (var93 x) (var4 x)))))
(assert (forall ((x Bool))  (exists ((x1 Bool)) (and(GTE x x1)  (implies (or (var58 x1) (var45 x1)) (or (var4 x) (not(var65 x))))))))
(assert (forall ((x Bool))  (exists ((x1 Bool)) (and(GTE x x1)  (implies (not(var22 x1)) (or (not(var47 x)) (not(var96 x)) (var100 x)))))))
(assert (forall ((x Bool))  (exists ((x1 Bool)) (and(GTE x x1)  (implies (or (not(var2 x1)) (not(var49 x1)) (var93 x1)) (var92 x))))))
(assert (forall ((x Bool)) (not(or (var55 x) (not(var65 x)) (not(var62 x)) (var51 x) (var93 x) (var89 x)))))
(assert (forall ((x Bool)) (not(or (not(var43 x)) (var21 x) (var54 x) (not(var44 x)) (var29 x) (not(var19 x))))))
(assert (forall ((x Bool)) (not(or (not(var52 x)) (var41 x) (not(var24 x)) (not(var64 x)) (not(var62 x)) (not(var2 x))))))
(assert (forall ((x Bool)) (not(or (var37 x) (var10 x) (var50 x) (var43 x) (not(var73 x)) (var27 x)))))
(assert (forall ((x Bool)) (not(or (var56 x) (not(var74 x)) (not(var54 x)) (var57 x) (var72 x) (not(var63 x))))))
(assert (forall ((x Bool)) (not(or (var98 x) (var56 x) (not(var64 x)) (var40 x) (not(var50 x)) (var46 x)))))
(assert (forall ((x Bool)) (not(or (not(var36 x)) (not(var97 x)) (var70 x) (var46 x) (var72 x) (not(var81 x))))))
(assert (forall ((x Bool)) (not(or (var78 x) (not(var96 x)) (not(var15 x)) (not(var38 x)) (var60 x) (not(var63 x))))))
(assert (forall ((x Bool)) (not(or (var2 x) (not(var13 x)) (var33 x) (var97 x) (var78 x) (var47 x)))))
(assert (forall ((x Bool)) (not(or (not(var19 x)) (var9 x) (not(var75 x)) (var5 x) (var72 x) (not(var58 x))))))
(assert (forall ((x Bool)) (not(or (not(var8 x)) (not(var40 x)) (var13 x) (var11 x) (var45 x) (not(var18 x))))))
(assert (forall ((x Bool)) (not(or (var32 x) (not(var96 x)) (not(var14 x)) (not(var19 x)) (not(var98 x)) (var22 x)))))
(assert (forall ((x Bool)) (not(or (not(var65 x)) (not(var6 x)) (not(var55 x)) (not(var20 x)) (not(var16 x)) (var78 x)))))
(assert (forall ((x Bool)) (not(or (not(var24 x)) (not(var93 x)) (not(var78 x)) (not(var87 x)) (not(var37 x)) (not(var39 x))))))
(assert (forall ((x Bool)) (not(or (not(var28 x)) (not(var1 x)) (not(var27 x)) (var7 x) (var20 x) (var84 x)))))
(assert (forall ((x Bool)) (not(or (not(var74 x)) (var52 x) (var64 x) (not(var58 x)) (var1 x) (not(var95 x))))))
(assert (forall ((x Bool)) (not(or (var35 x) (var58 x) (var64 x) (var71 x) (not(var33 x)) (not(var14 x))))))
(assert (forall ((x Bool)) (not(or (not(var49 x)) (not(var69 x)) (var57 x) (var38 x) (not(var89 x)) (var18 x)))))
(assert (forall ((x Bool)) (not(or (var2 x) (not(var70 x)) (not(var99 x)) (var15 x) (not(var17 x)) (var76 x)))))
(assert (forall ((x Bool)) (not(or (var57 x) (not(var94 x)) (not(var77 x)) (var8 x) (var22 x) (var37 x)))))
(assert (forall ((x Bool)) (not(or (not(var86 x)) (not(var67 x)) (var79 x) (not(var75 x)) (not(var90 x)) (not(var48 x))))))
(assert (forall ((x Bool)) (not(or (not(var13 x)) (var89 x) (var41 x) (var53 x) (var81 x) (not(var30 x))))))
(assert (forall ((x Bool)) (not(or (var23 x) (var29 x) (var50 x) (not(var14 x)) (not(var33 x)) (var34 x)))))
(assert (forall ((x Bool)) (not(or (var79 x) (var50 x) (var49 x) (not(var19 x)) (not(var90 x)) (var7 x)))))
(assert (forall ((x Bool)) (not(or (not(var69 x)) (var2 x) (not(var74 x)) (var46 x) (var51 x) (not(var54 x))))))
(assert (forall ((x Bool)) (not(or (not(var49 x)) (not(var14 x)) (not(var66 x)) (var36 x) (not(var73 x)) (var60 x)))))
(assert (forall ((x Bool)) (not(or (not(var15 x)) (not(var59 x)) (not(var73 x)) (var77 x) (not(var94 x)) (var42 x)))))
(assert (forall ((x Bool)) (not(or (var84 x) (not(var58 x)) (var79 x) (var30 x) (not(var72 x)) (not(var12 x))))))
(assert (forall ((x Bool)) (not(or (not(var77 x)) (not(var96 x)) (not(var38 x)) (not(var88 x)) (var14 x) (not(var60 x))))))
(assert (forall ((x Bool)) (not(or (not(var87 x)) (not(var62 x)) (var43 x) (var57 x) (var48 x) (var25 x)))))
(assert (forall ((x Bool))  (exists ((x1 Bool)) (and(GTE x x1)  (implies (or (var97 x1) (var23 x1) (not(var58 x1)) (not(var95 x1))) (or (var32 x) (var69 x)))))))
(assert (forall ((x Bool))  (exists ((x1 Bool)) (and(GTE x x1)  (implies (or (var13 x1) (not(var84 x1)) (not(var27 x1)) (not(var80 x1))) (or (not(var3 x)) (not(var6 x))))))))
(assert (forall ((x Bool))  (exists ((x1 Bool)) (and(GTE x x1)  (implies (var49 x1) (or (var41 x) (not(var12 x)) (var59 x) (not(var35 x)) (var67 x)))))))
(assert (forall ((x Bool)) (not(or (not(var92 x)) (var89 x) (not(var83 x)) (not(var16 x)) (not(var61 x)) (not(var25 x)) (var38 x) (not(var47 x))))))
(assert (forall ((x Bool)) (not(or (var63 x) (var68 x) (not(var19 x)) (var52 x) (var8 x) (var71 x) (var61 x) (not(var22 x))))))
(assert (forall ((x Bool)) (not(or (var90 x) (not(var28 x)) (not(var81 x)) (var14 x) (var64 x) (var32 x) (var55 x) (var91 x)))))
(assert (forall ((x Bool)) (not(or (var40 x) (var74 x) (var62 x) (not(var33 x)) (not(var3 x)) (not(var63 x)) (var100 x) (not(var4 x))))))
(assert (forall ((x Bool)) (not(or (not(var29 x)) (var12 x) (var57 x) (var18 x) (var58 x) (var41 x) (not(var52 x)) (var7 x)))))
(assert (forall ((x Bool)) (not(or (not(var75 x)) (not(var57 x)) (not(var24 x)) (not(var6 x)) (var53 x) (var52 x) (var41 x) (var25 x)))))
(assert (forall ((x Bool)) (not(or (var93 x) (var77 x) (not(var2 x)) (not(var8 x)) (var66 x) (var75 x) (var95 x) (not(var54 x))))))
(assert (forall ((x Bool)) (not(or (var41 x) (not(var61 x)) (var46 x) (not(var31 x)) (var2 x) (not(var71 x)) (not(var51 x)) (not(var100 x))))))
(assert (forall ((x Bool)) (not(or (not(var99 x)) (not(var91 x)) (var38 x) (not(var20 x)) (not(var45 x)) (not(var80 x)) (var2 x) (not(var58 x))))))
(assert (forall ((x Bool)) (not(or (var68 x) (var39 x) (var62 x) (var27 x) (var54 x) (not(var8 x)) (not(var13 x)) (var83 x)))))
(assert (forall ((x Bool)) (not(or (var46 x) (var17 x) (not(var35 x)) (not(var67 x)) (not(var92 x)) (var13 x) (var57 x) (var53 x)))))
(assert (forall ((x Bool)) (not(or (var59 x) (not(var80 x)) (var38 x) (var86 x) (var33 x) (not(var7 x)) (var49 x) (var66 x)))))
(assert (forall ((x Bool)) (not(or (var3 x) (var82 x) (not(var6 x)) (var55 x) (var22 x) (var81 x) (not(var8 x)) (var62 x)))))
(assert (forall ((x Bool)) (not(or (var55 x) (not(var14 x)) (not(var54 x)) (not(var91 x)) (not(var35 x)) (var28 x) (var4 x) (var82 x)))))
(assert (forall ((x Bool)) (not(or (var22 x) (not(var78 x)) (not(var47 x)) (not(var87 x)) (var39 x) (var74 x) (var16 x) (not(var6 x))))))
(assert (forall ((x Bool)) (not(or (var66 x) (var3 x) (var37 x) (var58 x) (var33 x) (not(var14 x)) (var71 x) (var86 x)))))
(assert (forall ((x Bool)) (not(or (var49 x) (not(var17 x)) (var86 x) (var73 x) (not(var91 x)) (not(var20 x)) (not(var19 x)) (var72 x)))))
(assert (forall ((x Bool)) (not(or (var100 x) (not(var30 x)) (var5 x) (not(var80 x)) (var70 x) (not(var95 x)) (var11 x) (not(var13 x))))))
(assert (forall ((x Bool)) (not(or (var72 x) (not(var67 x)) (not(var19 x)) (not(var85 x)) (not(var89 x)) (not(var24 x)) (not(var62 x)) (var88 x)))))
(assert (forall ((x Bool)) (not(or (var39 x) (var7 x) (not(var26 x)) (var97 x) (not(var77 x)) (var42 x) (not(var72 x)) (not(var99 x))))))
(assert (forall ((x Bool)) (not(or (not(var37 x)) (not(var77 x)) (not(var64 x)) (var31 x) (not(var26 x)) (not(var6 x)) (not(var47 x)) (not(var91 x))))))
(assert (forall ((x Bool)) (not(or (not(var43 x)) (not(var35 x)) (not(var90 x)) (var75 x) (not(var92 x)) (not(var1 x)) (not(var33 x)) (var9 x)))))
(assert (forall ((x Bool)) (not(or (var100 x) (var25 x) (var97 x) (not(var14 x)) (var20 x) (var27 x) (not(var24 x)) (not(var82 x))))))
(assert (forall ((x Bool)) (not(or (not(var52 x)) (var87 x) (not(var84 x)) (var20 x) (var18 x) (var12 x) (not(var99 x)) (not(var92 x))))))
(assert (forall ((x Bool)) (not(or (var69 x) (var83 x) (not(var92 x)) (not(var11 x)) (var29 x) (var55 x) (not(var10 x)) (not(var42 x))))))
(assert (forall ((x Bool)) (not(or (not(var10 x)) (var47 x) (var23 x) (var39 x) (not(var68 x)) (var42 x) (var41 x) (not(var26 x))))))
(assert (forall ((x Bool)) (not(or (not(var44 x)) (not(var62 x)) (var53 x) (var95 x) (var15 x) (var1 x) (var92 x) (not(var21 x))))))
(assert (forall ((x Bool)) (not(or (not(var97 x)) (var2 x) (var4 x) (var73 x) (not(var35 x)) (not(var10 x)) (var42 x) (var33 x)))))
(assert (forall ((x Bool)) (not(or (not(var16 x)) (var88 x) (var18 x) (var27 x) (var73 x) (not(var13 x)) (var43 x) (not(var15 x))))))
(assert (forall ((x Bool)) (not(or (not(var79 x)) (var80 x) (not(var43 x)) (var97 x) (not(var41 x)) (var62 x) (var66 x) (not(var68 x))))))
(assert (forall ((x Bool))  (exists ((x1 Bool)) (and(GTE x x1)  (implies (or (not(var24 x1)) (not(var34 x1))) (or (var77 x) (not(var10 x)) (not(var50 x)) (not(var46 x)) (not(var18 x)) (var27 x)))))))
(assert (forall ((x Bool))  (exists ((x1 Bool)) (and(GTE x x1)  (implies (or (var78 x1) (var27 x1) (var28 x1) (not(var37 x1)) (not(var72 x1)) (not(var64 x1)) (var79 x1)) (not(var6 x)))))))
(assert (forall ((x Bool))  (exists ((x1 Bool)) (and(GTE x x1)  (implies (or (var22 x1) (not(var18 x1)) (var46 x1) (var7 x1) (not(var24 x1)) (not(var4 x1))) (or (var97 x) (not(var99 x))))))))
(assert (forall ((x Bool)) (not(or (var64 x) (not(var67 x)) (var5 x) (var21 x) (var53 x) (not(var28 x)) (var78 x) (var71 x) (var63 x) (not(var96 x))))))
(assert (forall ((x Bool)) (not(or (not(var6 x)) (not(var94 x)) (var88 x) (var95 x) (var11 x) (not(var84 x)) (not(var93 x)) (not(var44 x)) (var99 x) (not(var24 x))))))
(assert (forall ((x Bool)) (not(or (not(var26 x)) (var82 x) (not(var23 x)) (var47 x) (var33 x) (var46 x) (not(var13 x)) (var53 x) (var65 x) (var99 x)))))
(assert (forall ((x Bool)) (not(or (not(var2 x)) (not(var100 x)) (not(var23 x)) (not(var7 x)) (var95 x) (not(var85 x)) (not(var55 x)) (var92 x) (not(var9 x)) (var79 x)))))
(assert (forall ((x Bool)) (not(or (not(var24 x)) (not(var72 x)) (var80 x) (var97 x) (var53 x) (not(var45 x)) (not(var85 x)) (var78 x) (var20 x) (var91 x)))))
(assert (forall ((x Bool)) (not(or (var27 x) (not(var62 x)) (not(var67 x)) (var6 x) (not(var35 x)) (var87 x) (not(var60 x)) (not(var86 x)) (var78 x) (var72 x)))))
(assert (forall ((x Bool)) (not(or (not(var54 x)) (var70 x) (var41 x) (not(var87 x)) (var50 x) (var28 x) (not(var9 x)) (var65 x) (not(var66 x)) (not(var77 x))))))
(assert (forall ((x Bool)) (not(or (var41 x) (var93 x) (not(var55 x)) (not(var32 x)) (var61 x) (not(var36 x)) (var30 x) (var50 x) (var26 x) (not(var80 x))))))
(assert (forall ((x Bool)) (not(or (var56 x) (not(var99 x)) (not(var70 x)) (var37 x) (not(var10 x)) (not(var61 x)) (var53 x) (var77 x) (var92 x) (var65 x)))))
(assert (forall ((x Bool)) (not(or (var92 x) (var11 x) (not(var72 x)) (not(var91 x)) (not(var45 x)) (not(var49 x)) (not(var25 x)) (not(var4 x)) (not(var9 x)) (not(var2 x))))))
(assert (forall ((x Bool)) (not(or (not(var62 x)) (var13 x) (not(var37 x)) (not(var53 x)) (not(var22 x)) (not(var57 x)) (var42 x) (var29 x) (var54 x) (not(var98 x))))))
(assert (forall ((x Bool)) (not(or (var98 x) (not(var21 x)) (not(var83 x)) (not(var58 x)) (not(var14 x)) (var7 x) (var13 x) (not(var94 x)) (not(var78 x)) (not(var88 x))))))
(assert (forall ((x Bool)) (not(or (not(var59 x)) (not(var73 x)) (var50 x) (var60 x) (var11 x) (var95 x) (not(var2 x)) (not(var29 x)) (not(var90 x)) (var24 x)))))
(assert (forall ((x Bool)) (not(or (not(var13 x)) (not(var82 x)) (not(var69 x)) (var3 x) (var27 x) (var54 x) (var46 x) (not(var68 x)) (var32 x) (var33 x)))))
(assert (forall ((x Bool)) (not(or (var67 x) (var86 x) (not(var68 x)) (not(var89 x)) (var32 x) (var95 x) (var79 x) (not(var43 x)) (not(var27 x)) (var82 x)))))
(assert (forall ((x Bool)) (not(or (not(var18 x)) (not(var86 x)) (not(var45 x)) (var53 x) (not(var76 x)) (var6 x) (var85 x) (not(var20 x)) (var64 x) (var72 x)))))
(assert (forall ((x Bool)) (not(or (not(var36 x)) (var88 x) (not(var18 x)) (var48 x) (var91 x) (not(var99 x)) (not(var79 x)) (var32 x) (not(var82 x)) (not(var87 x))))))
(assert (forall ((x Bool)) (not(or (not(var5 x)) (not(var27 x)) (var31 x) (var34 x) (var41 x) (not(var72 x)) (var30 x) (not(var17 x)) (not(var100 x)) (var6 x)))))
(assert (forall ((x Bool)) (not(or (not(var35 x)) (var77 x) (not(var69 x)) (not(var98 x)) (var14 x) (var86 x) (not(var73 x)) (not(var33 x)) (var91 x) (var84 x)))))
(assert (forall ((x Bool)) (not(or (not(var37 x)) (var34 x) (var6 x) (var51 x) (not(var38 x)) (var72 x) (var81 x) (var62 x) (var86 x) (not(var67 x))))))
(assert (forall ((x Bool)) (not(or (var80 x) (var9 x) (not(var88 x)) (not(var19 x)) (var12 x) (var58 x) (not(var86 x)) (not(var70 x)) (not(var29 x)) (not(var75 x))))))
(assert (forall ((x Bool)) (not(or (not(var24 x)) (var69 x) (var55 x) (var94 x) (var68 x) (not(var71 x)) (not(var23 x)) (var92 x) (not(var21 x)) (var35 x)))))
(assert (forall ((x Bool)) (not(or (var17 x) (not(var67 x)) (var55 x) (not(var69 x)) (not(var13 x)) (not(var56 x)) (not(var49 x)) (var9 x) (not(var39 x)) (not(var94 x))))))
(assert (forall ((x Bool)) (not(or (var4 x) (var36 x) (not(var14 x)) (var90 x) (not(var3 x)) (var57 x) (var20 x) (var48 x) (not(var9 x)) (var87 x)))))
(assert (forall ((x Bool)) (not(or (not(var74 x)) (var30 x) (var2 x) (var80 x) (var9 x) (var69 x) (not(var44 x)) (var75 x) (not(var34 x)) (var73 x)))))
(assert (forall ((x Bool)) (not(or (not(var29 x)) (not(var97 x)) (not(var32 x)) (not(var31 x)) (not(var94 x)) (not(var8 x)) (not(var14 x)) (not(var67 x)) (var84 x) (not(var85 x))))))
(assert (forall ((x Bool)) (not(or (var69 x) (var20 x) (not(var8 x)) (var96 x) (var51 x) (var1 x) (not(var40 x)) (var67 x) (not(var100 x)) (not(var98 x))))))
(assert (forall ((x Bool)) (not(or (not(var88 x)) (var16 x) (not(var7 x)) (var93 x) (not(var76 x)) (var85 x) (not(var3 x)) (var39 x) (not(var12 x)) (var47 x)))))
(assert (forall ((x Bool)) (not(or (var72 x) (var16 x) (var80 x) (var91 x) (var58 x) (var100 x) (not(var84 x)) (not(var46 x)) (not(var41 x)) (var37 x)))))
(assert (forall ((x Bool)) (not(or (not(var78 x)) (not(var75 x)) (not(var52 x)) (not(var95 x)) (var57 x) (var81 x) (var72 x) (not(var99 x)) (var3 x) (not(var93 x))))))
(assert (forall ((x Bool))  (exists ((x1 Bool)) (and(GTE x x1)  (implies (or (var30 x1) (not(var10 x1)) (var2 x1) (var44 x1)) (or (var26 x) (not(var65 x)) (not(var77 x)) (not(var93 x)) (not(var7 x)) (not(var98 x))))))))
(assert (forall ((x Bool))  (exists ((x1 Bool)) (and(GTE x x1)  (implies (or (var61 x1) (var87 x1) (var51 x1) (var67 x1) (not(var28 x1)) (var88 x1) (var33 x1)) (or (not(var30 x)) (not(var77 x)) (var29 x)))))))
(assert (forall ((x Bool))  (exists ((x1 Bool)) (and(GTE x x1)  (implies (or (not(var87 x1)) (not(var14 x1)) (var90 x1) (not(var3 x1)) (not(var65 x1)) (not(var97 x1)) (not(var60 x1))) (or (not(var8 x)) (var28 x) (not(var4 x))))))))
(assert (forall ((x Bool)) (not(or (not(var60 x)) (var32 x) (not(var86 x))))))
(assert (forall ((x Bool)) (not(or (var82 x) (var16 x) (not(var48 x)) (not(var85 x))))))
(check-sat)
(get-model)
